DIMENSION: 9
EDGE_WEIGHT_TYPE: EXPLICIT
EDGE_WEIGHT_FORMAT: FULL_MATRIX
EDGE_WEIGHT_SECTION:
32767 74 96 78 48 9 35 66 84 
74 32767 32767 51 94 69 51 73 6 
96 32767 32767 13 25 62 86 78 86 
78 51 13 32767 46 32767 32767 84 64 
48 94 25 46 32767 75 41 71 50 
9 69 62 32767 75 32767 77 93 25 
35 51 86 32767 41 77 32767 97 47 
66 73 78 84 71 93 97 32767 16 
84 6 86 64 50 25 47 16 32767 
EOF